&CONTROL
    calculation = 'bands'
    prefix = 'Silicene'
    restart_mode = 'from_scratch'
    outdir = './outdir'
    pseudo_dir = '../../pseudos/ONCVPSP/abinit/'
/

&SYSTEM
    ibrav = 4,
    celldm(1) = 7.3132395758,
    celldm(3) = 5.1679586563307494,
    nat = 2,          !  Numero de atomos na celula unitaria
    ntyp = 1,         !  Numero de tipos de atomos na celula unitaria
    ecutwfc = 60.0,   !  kinetic energy cutoff (Ry) for wavefunctions  (1 eV = 0.073498688455102 Ry)
    ecutrho = 360.0,  !  Kinetic energy cutoff (Ry) for charge density and potential  (Ry = 13.60568495873049 eV)
    nspin = 1,        !  nspin = 1 para calculo nao-polarizado
    nbnd = 100        !  Numero de bandas a serem calculadas
    lspinorb = .true.
    noncolin = .true.
/

&ELECTRONS
    conv_thr = 1.0e-8
    mixing_beta = 0.25
/

ATOMIC_SPECIES
Si 28.085 Si_ONCV_PBE_fr.upf

ATOMIC_POSITIONS crystal
Si 0.33333333 0.66666667 -0.0112279975760927
Si 0.66666667 0.33333333  0.0112279975760927

K_POINTS crystal_b
3
+0.0000000000 0.000000000 0.000000000 30 ! G
+0.3333333333 0.333333333 0.000000000 30 ! K
+0.0000000000 0.500000000 0.000000000 30 ! M