&CONTROL
    calculation = 'bands'
    prefix = 'PbSe'
    restart_mode = 'from_scratch'
    outdir = './outdir'
    pseudo_dir='../../pseudos/ONCVPSP/abinit/'
/

&SYSTEM 
    ibrav = 2,
    celldm(1) = 11.905211837182055
    nat = 2,           !  Numero de atomos na celula unitaria
    ntyp = 2,          !  Numero de tipos de atomos na celula unitaria
    ecutwfc = 100.0,   !  kinetic energy cutoff (Ry) for wavefunctions  (1 eV = 0.073498688455102 Ry)
    ecutrho = 400.0,   !  Kinetic energy cutoff (Ry) for charge density and potential  (Ry = 13.60568495873049 eV)
    nspin = 1,         !  nspin = 1 para calculo nao-polarizado
    lspinorb = .true.
    noncolin = .true.
    nbnd = 500     
/

&ELECTRONS
    conv_thr = 1.0e-8
    mixing_beta = 0.70
/

ATOMIC_SPECIES
Pb 207.20 Pb_ONCV_PBE_fr.upf
Se 78.971 Se_ONCV_PBE_fr.upf

ATOMIC_POSITIONS crystal
Pb  0.0  0.0  0.0
Se  0.5  0.5  0.5

K_POINTS tpiba_b
3
gG 30
L  30
X   1
