&CONTROL
    calculation = 'scf',
    prefix = 'GaBiCl2',
    restart_mode = 'from_scratch',
    outdir = './outdir',
    pseudo_dir = '../../pseudos/ONCVPSP/abinit/'
/
&SYSTEM
    ibrav = 4,
    celldm(1) = 9.0139461
    celldm(3) = 4.2589097
    nat = 4
    ntyp = 3
    ecutwfc = 100.0
    ecutrho = 500.0
    nbnd = 500
    lspinorb = .true.
    noncolin = .true.
/

&ELECTRONS
    conv_thr = 1.0e-8
    mixing_beta = 0.7
/

ATOMIC_SPECIES
Ga 69.723 Ga_ONCV_PBE_fr.upf
Bi 208.98 Bi_ONCV_PBE_fr.upf
Cl 35.450 Cl_ONCV_PBE_fr.upf

ATOMIC_POSITIONS crystal
Ga 0.66666667 0.33333333 0.500000000
Bi 0.33333333 0.66666667 0.467167109
Cl 0.66666667 0.33333333 0.607999027
Cl 0.33333333 0.66666667 0.346369654

K_POINTS automatic
8 8 1 0 0 0