&CONTROL
    calculation='bands'
    prefix='graphene'
    restart_mode='from_scratch'
    outdir='./outdir'
    pseudo_dir='../../pseudos/ONCVPSP/abinit/'
/
&SYSTEM
    ibrav = 4, a = 2.460, c= 20,
    nat = 2, ntyp = 1,
    ecutwfc = 80.0 ,
    ecutrho = 800.0 ,
    nbnd = 200 ,
    occupations = 'smearing', degauss = 0.0001, smearing = 'marzari-vanderbilt',
    assume_isolated = '2D',
    noncolin = True,
    lspinorb = True,
/
&ELECTRONS
    conv_thr = 1.0d-8,
    mixing_beta = 0.3,
/
ATOMIC_SPECIES
C 12.0107 C_ONCV_PBE_fr.upf
ATOMIC_POSITIONS crystal
C   0.33333333 0.66666667 0.00000000
C   0.66666667 0.33333333 0.00000000
K_POINTS crystal_b
3
+0.0000000000 0.000000000 0.000000000 30 ! G
+0.3333333333 0.333333333 0.000000000 30 ! K
+0.0000000000 0.500000000 0.000000000 30 ! M
