&CONTROL
    calculation = 'scf',
    restart_mode = 'from_scratch',
    outdir = './outdir/'
    pseudo_dir='../../pseudos/ONCVPSP/abinit/'
    prefix = 'Bi2Se3'
/

&SYSTEM
    ibrav = 5,
    celldm(1) = 18.39315311425224,
    celldm(4) = 0.91919033496261903356514753531944,
    nat = 5,          !  Numero de atomos na celula unitaria
    ntyp = 2,         !  Numero de tipos de atomos na celula unitaria
    ecutwfc = 60.0,   !  kinetic energy cutoff (Ry) for wavefunctions  (1 eV = 0.073498688455102 Ry)
    ecutrho = 600.0,  !  Kinetic energy cutoff (Ry) for charge density and potential  (Ry = 13.60568495873049 eV)
    nspin = 1,        !  nspin = 1 para calculo nao-polarizado
    nbnd = 500        !  Numero de bandas a serem calculadas
    lspinorb = .true.
    noncolin = .true.
    degauss = 0.01,
    occupations = 'smearing'
/

&ELECTRONS
    electron_maxstep = 999
    conv_thr = 1.0e-8
    mixing_mode = 'plain'
    mixing_beta = 0.25
    diagonalization = 'david'
/

ATOMIC_SPECIES
Bi 208.98 Bi_ONCV_PBE_fr.upf
Se 78.971 Se_ONCV_PBE_fr.upf

ATOMIC_POSITIONS crystal
Bi 0.401464798 0.401464861 0.401464760
Bi 0.598535123 0.598535248 0.598535250
Se 0.000000000 0.000000000 0.000000000
Se 0.790755235 0.790755500 0.790755350
Se 0.209244613 0.209244633 0.209244609

K_POINTS automatic
7 7 7 0 0 0
